226
67
46
0
71
33
87
136
57
629
163
48
166
14
22
157
0
18
85
27
265
139
65
396
86
0
14
201
102
70
44
0
114
264
110
325
88
38
330
327
73
221
105
70
14
46
101
229
102
122
94
120
0
171
19
244
181
215
37
27
133
34
151
15
104
71
56
315
286
85
73
294
316
75
42
15
72
120
120
456
317
100
337
154
81
56
144
124
128
52
392
0
31
124
119
206
89
129
296
252
